\ Model EsameScheduler
\ LP format - for model browsing. Use MPS format to capture full model detail.
Minimize
  15.643935 x_0_0_1_1 + 31.28786999999999 x_0_0_1_2
   + 46.93180499999999 x_0_0_1_3 + 10.322073 x_0_0_2_1
   + 20.644146 x_0_0_2_2 + 30.966219 x_0_0_2_3 + 15.643935 x_0_1_1_2
   + 31.28786999999999 x_0_1_1_3 + 10.322073 x_0_1_2_2
   + 20.644146 x_0_1_2_3 + 15.643935 x_0_2_1_3 + 10.322073 x_0_2_2_3
   + 15.643935 x_1_0_0_1 + 31.28786999999999 x_1_0_0_2
   + 46.93180499999999 x_1_0_0_3 + 19.269819 x_1_0_2_1
   + 38.539638 x_1_0_2_2 + 57.80945699999999 x_1_0_2_3
   + 15.643935 x_1_1_0_2 + 31.28786999999999 x_1_1_0_3
   + 19.269819 x_1_1_2_2 + 38.539638 x_1_1_2_3 + 15.643935 x_1_2_0_3
   + 19.269819 x_1_2_2_3 + 10.322073 x_2_0_0_1 + 20.644146 x_2_0_0_2
   + 30.966219 x_2_0_0_3 + 19.269819 x_2_0_1_1 + 38.539638 x_2_0_1_2
   + 57.80945699999999 x_2_0_1_3 + 10.322073 x_2_1_0_2
   + 20.644146 x_2_1_0_3 + 19.269819 x_2_1_1_2 + 38.539638 x_2_1_1_3
   + 10.322073 x_2_2_0_3 + 19.269819 x_2_2_1_3
Subject To
 constr(0): s_0_0 - 2 x_0_0_0_1 + s_0_1 <= 1
 constr(1): s_0_0 - 2 x_0_0_0_1 + s_0_1 >= 0
 constr(2): s_0_0 - 2 x_0_0_0_2 + s_0_2 <= 1
 constr(3): s_0_0 - 2 x_0_0_0_2 + s_0_2 >= 0
 constr(4): s_0_0 - 2 x_0_0_0_3 + s_0_3 <= 1
 constr(5): s_0_0 - 2 x_0_0_0_3 + s_0_3 >= 0
 constr(6): s_0_1 - 2 x_0_1_0_2 + s_0_2 <= 1
 constr(7): s_0_1 - 2 x_0_1_0_2 + s_0_2 >= 0
 constr(8): s_0_1 - 2 x_0_1_0_3 + s_0_3 <= 1
 constr(9): s_0_1 - 2 x_0_1_0_3 + s_0_3 >= 0
 constr(10): s_0_2 - 2 x_0_2_0_3 + s_0_3 <= 1
 constr(11): s_0_2 - 2 x_0_2_0_3 + s_0_3 >= 0
 constr(12): s_0_0 + s_1_0 <= 1
 constr(13): s_0_0 - 2 x_0_0_1_1 + s_1_1 <= 1
 constr(14): s_0_0 - 2 x_0_0_1_1 + s_1_1 >= 0
 constr(15): s_0_0 - 2 x_0_0_1_2 + s_1_2 <= 1
 constr(16): s_0_0 - 2 x_0_0_1_2 + s_1_2 >= 0
 constr(17): s_0_0 - 2 x_0_0_1_3 + s_1_3 <= 1
 constr(18): s_0_0 - 2 x_0_0_1_3 + s_1_3 >= 0
 constr(19): s_0_1 + s_1_1 <= 1
 constr(20): s_0_1 - 2 x_0_1_1_2 + s_1_2 <= 1
 constr(21): s_0_1 - 2 x_0_1_1_2 + s_1_2 >= 0
 constr(22): s_0_1 - 2 x_0_1_1_3 + s_1_3 <= 1
 constr(23): s_0_1 - 2 x_0_1_1_3 + s_1_3 >= 0
 constr(24): s_0_2 + s_1_2 <= 1
 constr(25): s_0_2 - 2 x_0_2_1_3 + s_1_3 <= 1
 constr(26): s_0_2 - 2 x_0_2_1_3 + s_1_3 >= 0
 constr(27): s_0_3 + s_1_3 <= 1
 constr(28): s_0_0 + s_2_0 <= 1
 constr(29): s_0_0 - 2 x_0_0_2_1 + s_2_1 <= 1
 constr(30): s_0_0 - 2 x_0_0_2_1 + s_2_1 >= 0
 constr(31): s_0_0 - 2 x_0_0_2_2 + s_2_2 <= 1
 constr(32): s_0_0 - 2 x_0_0_2_2 + s_2_2 >= 0
 constr(33): s_0_0 - 2 x_0_0_2_3 + s_2_3 <= 1
 constr(34): s_0_0 - 2 x_0_0_2_3 + s_2_3 >= 0
 constr(35): s_0_1 + s_2_1 <= 1
 constr(36): s_0_1 - 2 x_0_1_2_2 + s_2_2 <= 1
 constr(37): s_0_1 - 2 x_0_1_2_2 + s_2_2 >= 0
 constr(38): s_0_1 - 2 x_0_1_2_3 + s_2_3 <= 1
 constr(39): s_0_1 - 2 x_0_1_2_3 + s_2_3 >= 0
 constr(40): s_0_2 + s_2_2 <= 1
 constr(41): s_0_2 - 2 x_0_2_2_3 + s_2_3 <= 1
 constr(42): s_0_2 - 2 x_0_2_2_3 + s_2_3 >= 0
 constr(43): s_0_3 + s_2_3 <= 1
 constr(44): s_0_0 + s_1_0 <= 1
 constr(45): s_0_1 + s_1_0 - 2 x_1_0_0_1 <= 1
 constr(46): s_0_1 + s_1_0 - 2 x_1_0_0_1 >= 0
 constr(47): s_0_2 + s_1_0 - 2 x_1_0_0_2 <= 1
 constr(48): s_0_2 + s_1_0 - 2 x_1_0_0_2 >= 0
 constr(49): s_0_3 + s_1_0 - 2 x_1_0_0_3 <= 1
 constr(50): s_0_3 + s_1_0 - 2 x_1_0_0_3 >= 0
 constr(51): s_0_1 + s_1_1 <= 1
 constr(52): s_0_2 + s_1_1 - 2 x_1_1_0_2 <= 1
 constr(53): s_0_2 + s_1_1 - 2 x_1_1_0_2 >= 0
 constr(54): s_0_3 + s_1_1 - 2 x_1_1_0_3 <= 1
 constr(55): s_0_3 + s_1_1 - 2 x_1_1_0_3 >= 0
 constr(56): s_0_2 + s_1_2 <= 1
 constr(57): s_0_3 + s_1_2 - 2 x_1_2_0_3 <= 1
 constr(58): s_0_3 + s_1_2 - 2 x_1_2_0_3 >= 0
 constr(59): s_0_3 + s_1_3 <= 1
 constr(60): s_1_0 - 2 x_1_0_1_1 + s_1_1 <= 1
 constr(61): s_1_0 - 2 x_1_0_1_1 + s_1_1 >= 0
 constr(62): s_1_0 - 2 x_1_0_1_2 + s_1_2 <= 1
 constr(63): s_1_0 - 2 x_1_0_1_2 + s_1_2 >= 0
 constr(64): s_1_0 - 2 x_1_0_1_3 + s_1_3 <= 1
 constr(65): s_1_0 - 2 x_1_0_1_3 + s_1_3 >= 0
 constr(66): s_1_1 - 2 x_1_1_1_2 + s_1_2 <= 1
 constr(67): s_1_1 - 2 x_1_1_1_2 + s_1_2 >= 0
 constr(68): s_1_1 - 2 x_1_1_1_3 + s_1_3 <= 1
 constr(69): s_1_1 - 2 x_1_1_1_3 + s_1_3 >= 0
 constr(70): s_1_2 - 2 x_1_2_1_3 + s_1_3 <= 1
 constr(71): s_1_2 - 2 x_1_2_1_3 + s_1_3 >= 0
 constr(72): s_1_0 + s_2_0 <= 1
 constr(73): s_1_0 - 2 x_1_0_2_1 + s_2_1 <= 1
 constr(74): s_1_0 - 2 x_1_0_2_1 + s_2_1 >= 0
 constr(75): s_1_0 - 2 x_1_0_2_2 + s_2_2 <= 1
 constr(76): s_1_0 - 2 x_1_0_2_2 + s_2_2 >= 0
 constr(77): s_1_0 - 2 x_1_0_2_3 + s_2_3 <= 1
 constr(78): s_1_0 - 2 x_1_0_2_3 + s_2_3 >= 0
 constr(79): s_1_1 + s_2_1 <= 1
 constr(80): s_1_1 - 2 x_1_1_2_2 + s_2_2 <= 1
 constr(81): s_1_1 - 2 x_1_1_2_2 + s_2_2 >= 0
 constr(82): s_1_1 - 2 x_1_1_2_3 + s_2_3 <= 1
 constr(83): s_1_1 - 2 x_1_1_2_3 + s_2_3 >= 0
 constr(84): s_1_2 + s_2_2 <= 1
 constr(85): s_1_2 - 2 x_1_2_2_3 + s_2_3 <= 1
 constr(86): s_1_2 - 2 x_1_2_2_3 + s_2_3 >= 0
 constr(87): s_1_3 + s_2_3 <= 1
 constr(88): s_0_0 + s_2_0 <= 1
 constr(89): s_0_1 + s_2_0 - 2 x_2_0_0_1 <= 1
 constr(90): s_0_1 + s_2_0 - 2 x_2_0_0_1 >= 0
 constr(91): s_0_2 + s_2_0 - 2 x_2_0_0_2 <= 1
 constr(92): s_0_2 + s_2_0 - 2 x_2_0_0_2 >= 0
 constr(93): s_0_3 + s_2_0 - 2 x_2_0_0_3 <= 1
 constr(94): s_0_3 + s_2_0 - 2 x_2_0_0_3 >= 0
 constr(95): s_0_1 + s_2_1 <= 1
 constr(96): s_0_2 + s_2_1 - 2 x_2_1_0_2 <= 1
 constr(97): s_0_2 + s_2_1 - 2 x_2_1_0_2 >= 0
 constr(98): s_0_3 + s_2_1 - 2 x_2_1_0_3 <= 1
 constr(99): s_0_3 + s_2_1 - 2 x_2_1_0_3 >= 0
 constr(100): s_0_2 + s_2_2 <= 1
 constr(101): s_0_3 + s_2_2 - 2 x_2_2_0_3 <= 1
 constr(102): s_0_3 + s_2_2 - 2 x_2_2_0_3 >= 0
 constr(103): s_0_3 + s_2_3 <= 1
 constr(104): s_1_0 + s_2_0 <= 1
 constr(105): s_1_1 + s_2_0 - 2 x_2_0_1_1 <= 1
 constr(106): s_1_1 + s_2_0 - 2 x_2_0_1_1 >= 0
 constr(107): s_1_2 + s_2_0 - 2 x_2_0_1_2 <= 1
 constr(108): s_1_2 + s_2_0 - 2 x_2_0_1_2 >= 0
 constr(109): s_1_3 + s_2_0 - 2 x_2_0_1_3 <= 1
 constr(110): s_1_3 + s_2_0 - 2 x_2_0_1_3 >= 0
 constr(111): s_1_1 + s_2_1 <= 1
 constr(112): s_1_2 + s_2_1 - 2 x_2_1_1_2 <= 1
 constr(113): s_1_2 + s_2_1 - 2 x_2_1_1_2 >= 0
 constr(114): s_1_3 + s_2_1 - 2 x_2_1_1_3 <= 1
 constr(115): s_1_3 + s_2_1 - 2 x_2_1_1_3 >= 0
 constr(116): s_1_2 + s_2_2 <= 1
 constr(117): s_1_3 + s_2_2 - 2 x_2_2_1_3 <= 1
 constr(118): s_1_3 + s_2_2 - 2 x_2_2_1_3 >= 0
 constr(119): s_1_3 + s_2_3 <= 1
 constr(120): s_2_0 - 2 x_2_0_2_1 + s_2_1 <= 1
 constr(121): s_2_0 - 2 x_2_0_2_1 + s_2_1 >= 0
 constr(122): s_2_0 - 2 x_2_0_2_2 + s_2_2 <= 1
 constr(123): s_2_0 - 2 x_2_0_2_2 + s_2_2 >= 0
 constr(124): s_2_0 - 2 x_2_0_2_3 + s_2_3 <= 1
 constr(125): s_2_0 - 2 x_2_0_2_3 + s_2_3 >= 0
 constr(126): s_2_1 - 2 x_2_1_2_2 + s_2_2 <= 1
 constr(127): s_2_1 - 2 x_2_1_2_2 + s_2_2 >= 0
 constr(128): s_2_1 - 2 x_2_1_2_3 + s_2_3 <= 1
 constr(129): s_2_1 - 2 x_2_1_2_3 + s_2_3 >= 0
 constr(130): s_2_2 - 2 x_2_2_2_3 + s_2_3 <= 1
 constr(131): s_2_2 - 2 x_2_2_2_3 + s_2_3 >= 0
 constr(132): s_0_0 + s_0_1 + s_0_2 + s_0_3 = 2
 constr(133): s_1_0 + s_1_1 + s_1_2 + s_1_3 = 2
 constr(134): s_2_0 + s_2_1 + s_2_2 + s_2_3 = 2
 constr(135): - x_0_0_0_1 >= 0
 constr(136): x_0_0_0_2 = 0
 constr(137): x_0_0_0_3 >= 0
 constr(138): - x_0_1_0_2 >= 0
 constr(139): x_0_1_0_3 = 0
 constr(140): - x_0_2_0_3 >= 0
 constr(141): - x_1_0_1_1 >= 0
 constr(142): x_1_0_1_2 = 0
 constr(143): x_1_0_1_3 >= 0
 constr(144): - x_1_1_1_2 >= 0
 constr(145): x_1_1_1_3 = 0
 constr(146): - x_1_2_1_3 >= 0
 constr(147): - x_2_0_2_1 >= 0
 constr(148): x_2_0_2_2 = 0
 constr(149): x_2_0_2_3 >= 0
 constr(150): - x_2_1_2_2 >= 0
 constr(151): x_2_1_2_3 = 0
 constr(152): - x_2_2_2_3 >= 0
 constr(153): s_0_0 + s_1_0 + s_2_0 = 0
Bounds
Binaries
 s_0_0 x_0_0_0_1 x_0_0_0_2 x_0_0_0_3 x_0_0_1_1 x_0_0_1_2 x_0_0_1_3
 x_0_0_2_1 x_0_0_2_2 x_0_0_2_3 s_0_1 x_0_1_0_2 x_0_1_0_3 x_0_1_1_2
 x_0_1_1_3 x_0_1_2_2 x_0_1_2_3 s_0_2 x_0_2_0_3 x_0_2_1_3 x_0_2_2_3 s_0_3
 s_1_0 x_1_0_0_1 x_1_0_0_2 x_1_0_0_3 x_1_0_1_1 x_1_0_1_2 x_1_0_1_3
 x_1_0_2_1 x_1_0_2_2 x_1_0_2_3 s_1_1 x_1_1_0_2 x_1_1_0_3 x_1_1_1_2
 x_1_1_1_3 x_1_1_2_2 x_1_1_2_3 s_1_2 x_1_2_0_3 x_1_2_1_3 x_1_2_2_3 s_1_3
 s_2_0 x_2_0_0_1 x_2_0_0_2 x_2_0_0_3 x_2_0_1_1 x_2_0_1_2 x_2_0_1_3
 x_2_0_2_1 x_2_0_2_2 x_2_0_2_3 s_2_1 x_2_1_0_2 x_2_1_0_3 x_2_1_1_2
 x_2_1_1_3 x_2_1_2_2 x_2_1_2_3 s_2_2 x_2_2_0_3 x_2_2_1_3 x_2_2_2_3 s_2_3
End
